\ This file has been generated by DOcplex
\ ENCODING=ISO-8859-1
\Problem name: Turbo

Maximize
 obj: 3 turbines_0_0 + 3 turbines_0_1 + 3 turbines_0_2 + 3 turbines_0_3
      + 3 turbines_0_4 + 4 turbines_1_0 + 4 turbines_1_1 + 4 turbines_1_2
      + 4 turbines_1_3 + 4 turbines_1_4 + 5 turbines_2_0 + 5 turbines_2_1
      + 5 turbines_2_2 + 5 turbines_2_3 + 5 turbines_2_4
Subject To
 Type_0: turbines_0_0 + turbines_0_1 + turbines_0_2 + turbines_0_3
         + turbines_0_4 <= 2
 Type_1: turbines_1_0 + turbines_1_1 + turbines_1_2 + turbines_1_3
         + turbines_1_4 <= 4
 Type_2: turbines_2_0 + turbines_2_1 + turbines_2_2 + turbines_2_3
         + turbines_2_4 <= 7
 Dist_0: 3 turbines_0_0 + 4 turbines_1_0 + 5 turbines_2_0 <= 6
 Dist_1: 3 turbines_0_1 + 4 turbines_1_1 + 5 turbines_2_1 <= 7
 Dist_2: 3 turbines_0_2 + 4 turbines_1_2 + 5 turbines_2_2 <= 8
 Dist_3: 3 turbines_0_3 + 4 turbines_1_3 + 5 turbines_2_3 <= 9
 Dist_4: 3 turbines_0_4 + 4 turbines_1_4 + 5 turbines_2_4 <= 10

Bounds

Generals
 turbines_0_0 turbines_0_1 turbines_0_2 turbines_0_3 turbines_0_4 turbines_1_0
 turbines_1_1 turbines_1_2 turbines_1_3 turbines_1_4 turbines_2_0 turbines_2_1
 turbines_2_2 turbines_2_3 turbines_2_4
End
